NAME: Tnm106
COMMENT: Recalculated optimal tour for Tnm106, using concorde got a tour of length 1469617.0
TYPE: TOUR
DIMENSION: 106
TOUR_SECTION:
1
81
78
75
72
69
66
63
60
57
54
51
48
45
42
39
36
33
30
27
24
21
18
15
12
9
6
3
80
77
82
74
71
68
85
88
91
94
97
65
62
59
56
53
50
47
44
41
38
35
32
29
26
23
20
17
14
11
90
87
8
5
2
79
76
84
73
70
67
64
61
58
55
52
49
46
43
40
93
96
99
102
105
100
103
106
104
101
98
95
92
37
34
31
28
25
22
19
16
13
10
89
86
7
4
83 
-1
EOF
